c t wmc
c file mc2023_track2_134.cnf
p cnf 90 270
-54 17 -49 0
-41 -54 13 0
-31 -51 53 0
8 12 87 0
-38 47 37 0
-42 -64 55 0
66 -72 38 0
59 -27 73 0
-35 -46 23 0
-7 17 73 0
-19 -38 -85 0
-75 -52 -70 0
69 -57 50 0
-81 -7 -82 0
-29 -33 -75 0
-27 57 42 0
26 -88 56 0
25 -83 -62 0
50 12 -27 0
53 -77 52 0
-28 81 -69 0
11 -54 52 0
-40 71 73 0
-56 -64 -63 0
-19 -25 61 0
59 -43 28 0
66 -19 -47 0
-21 50 -76 0
84 46 74 0
-83 39 -16 0
-16 63 -29 0
61 69 58 0
79 58 -14 0
-13 39 -23 0
74 90 17 0
32 79 71 0
8 31 29 0
35 -90 59 0
9 38 -51 0
-9 -61 19 0
38 10 59 0
-72 57 84 0
-69 -63 -68 0
-38 -71 -68 0
30 17 -68 0
29 48 -44 0
-34 48 -18 0
45 -88 62 0
6 39 66 0
41 21 -34 0
53 -40 -57 0
-19 -21 -70 0
20 -8 -46 0
-1 -36 -32 0
79 -63 -54 0
-45 -43 -37 0
76 41 -78 0
11 44 80 0
89 49 -20 0
-61 9 8 0
23 -85 26 0
8 39 -10 0
-88 -67 -55 0
-45 67 -70 0
-34 33 -65 0
-71 58 84 0
-41 -71 84 0
-84 22 -89 0
-68 69 -39 0
14 -5 11 0
-55 1 14 0
-25 -90 -85 0
15 -24 68 0
71 36 84 0
2 -39 69 0
-18 -70 65 0
-46 53 36 0
32 -69 -13 0
-54 27 -29 0
-79 -72 -21 0
41 73 -85 0
1 30 -15 0
-70 9 -83 0
-65 -58 -47 0
82 -86 -75 0
-23 -33 42 0
81 -41 -87 0
89 -1 -66 0
-21 -60 22 0
-27 53 7 0
-60 39 -70 0
86 -12 49 0
-8 9 59 0
-88 45 40 0
53 -9 34 0
-7 50 82 0
-36 3 51 0
43 -35 50 0
5 -26 -88 0
19 -68 -6 0
50 -45 -57 0
62 -86 75 0
16 -56 -27 0
-83 15 13 0
70 1 84 0
59 -14 7 0
49 -18 -60 0
-22 76 74 0
-63 -42 69 0
-87 -64 -75 0
29 -47 50 0
8 87 50 0
78 -16 -80 0
-38 85 55 0
53 13 69 0
35 -14 -82 0
-67 69 74 0
74 69 54 0
35 -49 -86 0
-11 48 28 0
-19 -10 60 0
-80 -9 39 0
29 -77 -3 0
-8 -61 2 0
49 -14 76 0
11 -88 68 0
-73 15 56 0
4 -66 53 0
-83 57 -3 0
-14 21 -75 0
-16 14 80 0
72 -88 41 0
32 41 64 0
52 -73 21 0
84 -42 80 0
69 75 78 0
84 -88 29 0
37 22 -5 0
55 15 -79 0
77 -75 -24 0
56 -37 -83 0
-87 14 -51 0
-48 10 -34 0
-54 22 57 0
-31 -34 -76 0
-27 -13 -59 0
-38 1 61 0
-40 -1 -71 0
-43 -66 -9 0
3 74 14 0
-77 -20 -56 0
-90 -6 -30 0
8 -7 -80 0
15 26 -30 0
-47 74 50 0
-22 -34 -89 0
-47 -6 36 0
67 -38 26 0
-12 61 22 0
-74 -82 -28 0
23 89 11 0
37 26 -86 0
75 47 2 0
30 -56 51 0
45 6 -60 0
38 60 3 0
60 -34 -30 0
-61 53 -16 0
3 -49 60 0
-6 -19 34 0
16 -24 -51 0
-55 -24 -4 0
-25 -66 -18 0
35 78 31 0
9 49 -37 0
72 45 -37 0
-55 -36 -11 0
-20 4 -24 0
-59 -54 58 0
81 37 84 0
-42 67 -21 0
-21 24 -18 0
25 -4 -84 0
59 -6 -10 0
80 -19 82 0
-25 14 -19 0
28 80 30 0
1 -30 42 0
-29 -83 64 0
-66 8 59 0
-14 68 -75 0
59 18 45 0
-43 -82 31 0
77 84 66 0
33 62 22 0
-72 -85 22 0
37 -14 3 0
54 63 2 0
13 50 -77 0
23 64 -87 0
-78 -72 17 0
49 -76 23 0
37 78 32 0
4 -5 -16 0
68 -50 -46 0
57 -55 -5 0
-56 -63 -77 0
-71 20 45 0
48 35 1 0
13 -27 45 0
-90 89 -24 0
59 -23 -39 0
81 8 -5 0
-73 67 16 0
-37 -47 45 0
-16 64 72 0
50 -40 -55 0
24 -19 -43 0
68 33 50 0
-89 10 -77 0
-51 33 59 0
53 82 66 0
81 19 -62 0
13 60 81 0
-74 -2 31 0
-13 -76 8 0
-18 14 32 0
32 -60 40 0
31 45 44 0
21 44 30 0
-18 -5 37 0
-3 58 44 0
-56 68 67 0
68 -29 1 0
-3 59 74 0
-35 -87 14 0
-65 -62 40 0
38 -16 26 0
58 -55 38 0
-41 -5 -23 0
17 80 -79 0
-75 11 -4 0
-23 -52 -83 0
49 -61 17 0
26 -12 87 0
-40 87 66 0
20 -19 -26 0
-85 75 49 0
32 -75 80 0
10 -9 28 0
-22 74 39 0
-72 5 60 0
78 -41 64 0
-75 -38 4 0
-63 -17 7 0
53 -70 -13 0
31 -38 54 0
60 23 53 0
-31 -6 -72 0
64 -14 -9 0
-84 -63 -34 0
-30 -63 -36 0
10 76 -28 0
-69 19 47 0
65 -90 -21 0
-83 -69 -55 0
62 85 66 0
-21 7 33 0
-45 -63 -51 0
58 -7 87 0
c p weight 30 0.42898085 0
c p weight -30 0.57101915 0
c p weight 57 0.47430785 0
c p weight -57 0.52569215 0
c p weight 1 1 0
c p weight -1 1 0
c p weight 2 1 0
c p weight -2 1 0
c p weight 3 1 0
c p weight -3 1 0
c p weight 4 1 0
c p weight -4 1 0
c p weight 5 1 0
c p weight -5 1 0
c p weight 6 1 0
c p weight -6 1 0
c p weight 7 1 0
c p weight -7 1 0
c p weight 8 1 0
c p weight -8 1 0
c p weight 9 1 0
c p weight -9 1 0
c p weight 10 1 0
c p weight -10 1 0
c p weight 11 1 0
c p weight -11 1 0
c p weight 12 1 0
c p weight -12 1 0
c p weight 13 1 0
c p weight -13 1 0
c p weight 14 1 0
c p weight -14 1 0
c p weight 15 1 0
c p weight -15 1 0
c p weight 16 1 0
c p weight -16 1 0
c p weight 17 1 0
c p weight -17 1 0
c p weight 18 1 0
c p weight -18 1 0
c p weight 19 1 0
c p weight -19 1 0
c p weight 20 1 0
c p weight -20 1 0
c p weight 21 1 0
c p weight -21 1 0
c p weight 22 1 0
c p weight -22 1 0
c p weight 23 1 0
c p weight -23 1 0
c p weight 24 1 0
c p weight -24 1 0
c p weight 25 1 0
c p weight -25 1 0
c p weight 26 1 0
c p weight -26 1 0
c p weight 27 1 0
c p weight -27 1 0
c p weight 28 1 0
c p weight -28 1 0
c p weight 29 1 0
c p weight -29 1 0
c p weight 31 1 0
c p weight -31 1 0
c p weight 32 1 0
c p weight -32 1 0
c p weight 33 1 0
c p weight -33 1 0
c p weight 34 1 0
c p weight -34 1 0
c p weight 35 1 0
c p weight -35 1 0
c p weight 36 1 0
c p weight -36 1 0
c p weight 37 1 0
c p weight -37 1 0
c p weight 38 1 0
c p weight -38 1 0
c p weight 39 1 0
c p weight -39 1 0
c p weight 40 1 0
c p weight -40 1 0
c p weight 41 1 0
c p weight -41 1 0
c p weight 42 1 0
c p weight -42 1 0
c p weight 43 1 0
c p weight -43 1 0
c p weight 44 1 0
c p weight -44 1 0
c p weight 45 1 0
c p weight -45 1 0
c p weight 46 1 0
c p weight -46 1 0
c p weight 47 1 0
c p weight -47 1 0
c p weight 48 1 0
c p weight -48 1 0
c p weight 49 1 0
c p weight -49 1 0
c p weight 50 1 0
c p weight -50 1 0
c p weight 51 1 0
c p weight -51 1 0
c p weight 52 1 0
c p weight -52 1 0
c p weight 53 1 0
c p weight -53 1 0
c p weight 54 1 0
c p weight -54 1 0
c p weight 55 1 0
c p weight -55 1 0
c p weight 56 1 0
c p weight -56 1 0
c p weight 58 1 0
c p weight -58 1 0
c p weight 59 1 0
c p weight -59 1 0
c p weight 60 1 0
c p weight -60 1 0
c p weight 61 1 0
c p weight -61 1 0
c p weight 62 1 0
c p weight -62 1 0
c p weight 63 1 0
c p weight -63 1 0
c p weight 64 1 0
c p weight -64 1 0
c p weight 65 1 0
c p weight -65 1 0
c p weight 66 1 0
c p weight -66 1 0
c p weight 67 1 0
c p weight -67 1 0
c p weight 68 1 0
c p weight -68 1 0
c p weight 69 1 0
c p weight -69 1 0
c p weight 70 1 0
c p weight -70 1 0
c p weight 71 1 0
c p weight -71 1 0
c p weight 72 1 0
c p weight -72 1 0
c p weight 73 1 0
c p weight -73 1 0
c p weight 74 1 0
c p weight -74 1 0
c p weight 75 1 0
c p weight -75 1 0
c p weight 76 1 0
c p weight -76 1 0
c p weight 77 1 0
c p weight -77 1 0
c p weight 78 1 0
c p weight -78 1 0
c p weight 79 1 0
c p weight -79 1 0
c p weight 80 1 0
c p weight -80 1 0
c p weight 81 1 0
c p weight -81 1 0
c p weight 82 1 0
c p weight -82 1 0
c p weight 83 1 0
c p weight -83 1 0
c p weight 84 1 0
c p weight -84 1 0
c p weight 85 1 0
c p weight -85 1 0
c p weight 86 1 0
c p weight -86 1 0
c p weight 87 1 0
c p weight -87 1 0
c p weight 88 1 0
c p weight -88 1 0
c p weight 89 1 0
c p weight -89 1 0
c p weight 90 1 0
c p weight -90 1 0
